c This is an instance of the heur track of PACE 2020 Challenge, see https://pacechallenge.org/2020/ 
c TYPE: generated 
c ORIGIN: Python networkx package 
c DESCRIPTION: A cycle graph on p nodes with chords joining each vertex x to its inverse modulo p. This graph is a (mildly explicit) 3-regular expander. Generated using chordal_cycle_graph function from Python’s networkx package 
p tdp 1013 1518
1 2
1 3
2 753
3 4
4 5
4 6
5 7
5 8
6 752
6 754
7 9
7 10
8 578
8 458
9 11
9 12
10 916
10 664
11 13
11 14
12 454
12 864
13 15
13 16
14 313
14 316
15 17
15 18
16 846
16 848
17 19
17 20
18 636
18 410
19 21
19 22
20 890
20 943
21 23
21 24
22 406
22 180
23 25
23 26
24 940
24 692
25 27
25 28
26 176
26 858
27 29
27 30
28 150
28 152
29 31
29 32
30 972
30 260
31 33
31 34
32 394
32 987
33 35
33 36
34 256
34 352
35 37
35 38
36 525
36 528
37 39
37 40
38 649
38 652
39 41
39 42
40 298
40 300
41 43
41 44
42 285
42 288
43 45
43 46
44 353
44 94
45 47
45 48
46 982
46 90
47 49
47 50
48 90
48 386
49 51
49 52
50 86
50 158
51 53
51 54
52 382
52 1006
53 55
53 56
54 75
54 78
55 57
55 58
56 1010
56 874
57 59
57 60
58 148
58 654
59 61
59 62
60 771
60 774
61 63
61 64
62 706
62 188
63 65
63 66
64 842
64 1002
65 67
65 68
66 179
66 182
67 69
67 70
68 536
68 538
69 71
69 72
70 281
70 284
71 73
71 74
72 767
72 770
73 75
73 76
74 357
74 360
75 77
76 970
76 972
77 152
77 154
78 79
78 80
79 81
79 82
80 147
80 150
81 83
81 84
82 858
82 674
83 85
83 86
84 686
84 388
85 87
85 88
86 670
87 89
87 90
88 384
88 92
89 91
89 92
91 93
91 94
92 983
93 95
93 96
94 356
95 97
95 98
96 655
96 126
97 99
97 100
98 868
98 814
99 101
99 102
100 122
100 730
101 103
101 104
102 704
102 706
103 105
103 106
104 774
104 324
105 107
105 108
106 736
106 809
107 109
107 110
108 320
108 402
109 111
109 112
110 806
110 970
111 113
111 114
112 360
112 362
113 115
113 116
114 646
114 648
115 117
115 118
116 469
116 198
117 119
117 120
118 960
118 514
119 121
119 122
120 194
120 816
121 123
121 124
122 510
123 125
123 126
124 812
124 869
125 127
125 128
126 658
127 129
127 130
128 820
128 351
129 131
129 132
130 726
130 604
131 133
131 134
132 348
132 895
133 135
133 136
134 600
134 636
135 137
135 138
136 848
136 850
137 139
137 140
138 559
138 445
139 141
139 142
140 928
140 392
141 143
141 144
142 442
142 670
143 145
143 146
144 388
144 214
145 147
145 148
146 666
146 875
147 149
148 210
149 872
149 1013
150 151
151 685
151 688
152 153
153 393
153 396
154 155
154 156
155 157
155 158
156 1013
156 384
157 159
157 160
158 796
159 161
159 162
160 380
160 374
161 163
161 164
162 792
162 276
163 165
163 166
164 370
164 204
165 167
165 168
166 272
166 308
167 169
167 170
168 200
168 768
169 171
169 172
170 304
170 742
171 173
171 174
172 641
172 644
173 175
173 176
174 732
174 693
175 177
175 178
176 778
177 179
177 180
178 690
178 942
179 181
180 536
181 182
181 184
182 183
183 936
183 938
184 185
184 186
185 187
185 188
186 1005
186 843
187 189
187 190
188 708
189 191
189 192
190 419
190 422
191 193
191 194
192 912
192 515
193 195
193 196
194 582
195 197
195 198
196 512
196 961
197 199
197 200
198 310
199 201
199 202
200 958
201 203
201 204
202 306
202 274
203 205
203 206
204 486
205 207
205 208
206 270
206 952
207 209
207 210
208 295
208 298
209 211
209 212
210 652
211 213
211 214
212 874
212 668
213 215
213 216
214 454
215 217
215 218
216 664
216 548
217 219
217 220
218 450
218 679
219 221
219 222
220 544
220 862
221 223
221 224
222 247
222 250
223 225
223 226
224 924
224 828
225 227
225 228
226 570
226 722
227 229
227 230
228 572
228 574
229 231
229 232
230 612
230 614
231 233
231 234
232 609
232 490
233 235
233 236
234 904
234 270
235 237
235 238
236 486
236 784
237 239
237 240
238 266
238 732
239 241
239 242
240 644
240 646
241 243
241 244
242 362
242 364
243 245
243 246
244 918
244 920
245 247
245 248
246 489
246 492
247 249
248 473
248 476
249 673
249 676
250 251
250 252
251 253
251 254
252 569
252 572
253 255
253 256
254 722
254 724
255 257
255 258
256 349
257 259
257 260
258 986
258 395
259 261
259 262
260 442
261 263
261 264
262 392
262 591
263 265
263 266
264 438
264 786
265 267
265 268
266 588
267 269
267 270
268 782
268 488
269 271
269 272
271 273
271 274
272 484
273 275
273 276
274 372
275 277
275 278
276 751
277 279
277 280
278 368
278 756
279 281
279 282
280 717
280 720
281 283
282 552
282 542
283 932
283 936
284 285
284 286
285 287
286 740
286 304
287 768
287 992
288 289
288 290
289 291
289 292
290 981
290 527
291 293
291 294
292 354
292 946
293 295
293 296
294 339
294 342
295 297
296 757
296 760
297 479
297 482
298 299
299 873
299 876
300 301
300 302
301 303
301 304
302 996
302 769
303 305
303 306
305 307
305 308
306 766
307 309
307 310
308 960
309 311
309 312
310 472
311 313
311 314
312 427
312 430
313 315
314 817
314 820
315 658
315 660
316 317
316 318
317 319
317 320
318 702
318 704
319 321
319 322
320 730
321 323
321 324
322 808
322 737
323 325
323 326
324 776
325 327
325 328
326 691
326 535
327 329
327 330
328 856
328 470
329 331
329 332
330 532
330 630
331 333
331 334
332 466
332 551
333 335
333 336
334 626
334 450
335 337
335 338
336 548
336 962
337 339
337 340
338 433
338 436
339 341
340 589
340 592
341 521
341 524
342 343
342 344
343 345
343 346
344 746
344 719
345 347
345 348
346 758
346 605
347 349
347 350
348 716
349 351
350 602
350 727
351 822
352 353
352 354
353 355
354 944
355 526
355 996
356 357
356 358
357 359
358 867
358 773
359 656
359 740
360 361
361 396
361 398
362 363
363 878
363 880
364 365
364 366
365 367
365 368
366 576
366 578
367 369
367 370
368 754
369 371
369 372
370 750
371 373
371 374
372 794
373 375
373 376
374 420
375 377
375 378
376 790
376 635
377 379
377 380
378 416
378 798
379 381
379 382
380 632
381 383
381 384
382 794
383 385
383 386
385 387
385 388
386 672
387 389
387 390
389 391
389 392
390 668
390 444
391 393
391 394
393 395
394 440
395 1009
396 397
397 1007
397 979
398 399
398 400
399 401
399 402
400 977
400 808
401 403
401 404
402 698
403 405
403 406
404 804
404 854
405 407
405 408
406 533
407 409
407 410
408 942
408 891
409 411
409 412
410 610
411 413
411 414
412 888
412 906
413 415
413 416
414 595
414 598
415 417
415 418
416 893
417 419
417 420
418 634
418 792
419 421
420 712
421 788
421 840
422 423
422 424
423 425
423 426
424 581
424 584
425 427
425 428
426 711
426 498
427 429
428 838
428 475
429 494
429 956
430 431
430 432
431 433
431 434
432 728
432 566
433 435
434 818
434 926
435 443
435 446
436 437
436 438
437 439
437 440
438 910
439 441
439 442
440 590
441 443
441 444
443 445
444 929
445 562
446 447
446 448
447 449
447 450
448 965
448 550
449 451
449 452
451 453
451 454
452 546
452 666
453 455
453 456
455 457
455 458
456 662
456 917
457 459
457 460
458 580
459 461
459 462
460 513
460 516
461 463
461 464
462 897
462 802
463 465
463 466
464 622
464 632
465 467
465 468
466 798
467 469
467 470
468 628
468 534
469 471
470 651
471 530
471 878
472 473
472 474
473 475
474 966
474 496
475 950
476 477
476 478
477 479
477 480
478 862
478 686
479 481
480 674
480 763
481 682
481 746
482 483
482 484
483 485
483 486
484 995
485 487
485 488
487 489
487 490
488 905
489 491
490 612
491 574
491 576
492 493
492 494
493 495
493 496
494 954
495 497
495 498
496 839
497 499
497 500
498 522
499 501
499 502
500 836
500 899
501 503
501 504
502 518
502 624
503 505
503 506
504 549
504 552
505 507
505 508
506 720
506 570
507 509
507 510
508 828
508 818
509 511
509 512
510 566
511 513
511 514
512 814
513 515
514 583
515 914
516 517
516 518
517 519
517 520
518 621
519 521
519 522
520 898
520 838
521 523
522 596
523 834
523 910
524 525
524 526
525 527
526 989
527 984
528 529
528 530
529 531
529 532
530 876
531 533
531 534
532 650
533 535
534 857
535 694
536 537
537 1002
537 1004
538 539
538 540
539 541
539 542
540 998
540 933
541 543
541 544
542 554
543 545
543 546
544 860
545 547
545 548
546 678
547 549
547 550
549 551
550 628
551 896
552 553
553 827
553 830
554 555
554 556
555 557
555 558
556 677
556 680
557 559
557 560
558 761
558 643
559 561
560 744
560 853
561 640
561 700
562 563
562 564
563 565
563 566
564 963
564 819
565 567
565 568
567 569
567 570
568 816
568 829
569 571
571 826
571 1001
572 573
573 822
573 824
574 575
575 900
575 902
576 577
577 951
577 975
578 579
579 749
579 752
580 581
580 582
581 583
582 948
583 969
584 585
584 586
585 587
585 588
586 837
586 788
587 589
587 590
588 712
589 591
590 784
591 964
592 593
592 594
593 595
593 596
594 946
594 836
595 597
596 714
597 603
597 606
598 599
598 600
599 601
599 602
600 633
601 603
601 604
602 894
603 605
604 718
605 832
606 607
606 608
607 609
607 610
608 909
608 890
609 611
610 618
611 886
611 900
612 613
613 920
613 922
614 615
614 616
615 617
615 618
616 903
616 888
617 619
617 620
618 638
619 621
619 622
620 851
620 804
621 623
622 698
623 800
623 949
624 625
624 626
625 627
625 628
626 934
627 629
627 630
629 631
629 632
630 800
631 633
631 634
633 635
634 796
635 909
636 637
637 700
637 702
638 639
638 640
639 641
639 642
640 697
641 643
642 852
642 745
643 764
644 645
645 777
645 780
646 647
647 974
647 976
648 649
648 650
649 651
650 959
651 944
652 653
653 992
653 994
654 655
654 656
655 657
656 738
657 772
657 980
658 659
659 725
659 728
660 661
660 662
661 663
661 664
662 991
663 665
663 666
665 667
665 668
667 669
667 670
669 671
669 672
671 673
671 674
672 687
673 675
675 684
675 954
676 677
676 678
677 679
678 1001
679 932
680 681
680 682
681 683
681 684
682 743
683 685
683 686
684 762
685 687
687 1011
688 689
688 690
689 691
689 692
690 1009
691 693
692 779
693 734
694 695
694 696
695 697
695 698
696 943
696 806
697 699
699 802
699 886
700 701
701 929
701 894
702 703
703 891
703 991
704 705
705 807
705 810
706 707
707 735
707 738
708 709
708 710
709 711
709 712
710 968
710 790
711 713
713 786
713 912
714 715
714 716
715 717
715 718
716 906
717 719
718 759
719 748
720 721
721 931
721 934
722 723
723 922
723 924
724 725
724 726
725 727
726 985
727 868
728 729
729 865
729 967
730 731
731 844
731 846
732 733
733 880
733 882
734 735
734 736
735 737
736 857
737 845
738 739
739 843
739 872
740 741
741 979
741 999
742 743
742 744
743 745
744 882
745 861
746 747
747 953
747 989
748 749
748 750
749 751
750 831
751 919
752 753
753 917
754 755
755 915
755 918
756 757
756 758
757 759
758 830
759 988
760 761
760 762
761 763
762 952
763 860
764 765
764 766
765 767
765 768
766 883
767 769
769 998
770 771
770 772
771 773
772 978
773 870
774 775
775 841
775 844
776 777
776 778
777 779
778 855
779 883
780 781
780 782
781 783
781 784
782 881
783 785
783 786
785 787
785 788
787 789
787 790
789 791
789 792
791 793
791 794
793 795
793 796
795 797
795 798
797 799
797 800
799 801
799 802
801 803
801 804
803 805
803 806
805 807
805 808
807 809
809 847
810 811
810 812
811 813
811 814
812 845
813 815
813 816
815 817
815 818
817 819
819 966
820 821
821 864
821 866
822 823
823 987
823 925
824 825
824 826
825 827
825 828
826 923
827 829
829 935
830 831
831 933
832 833
832 834
833 835
833 836
834 907
835 837
835 838
837 839
839 913
840 841
840 842
841 843
842 969
844 845
846 847
847 990
848 849
849 889
849 892
850 851
850 852
851 853
852 927
853 884
854 855
854 856
855 857
856 941
858 859
859 1008
859 1010
860 861
861 930
862 863
863 1000
863 955
864 865
865 990
866 867
866 868
867 869
869 982
870 871
870 872
871 873
871 874
873 875
875 995
876 877
877 993
877 945
878 879
879 961
879 977
880 881
881 975
882 883
884 885
884 886
885 887
885 888
887 889
887 890
889 891
892 893
892 894
893 895
895 908
896 897
896 898
897 899
898 935
899 948
900 901
901 905
901 923
902 903
902 904
903 905
904 921
906 907
907 908
908 909
910 911
911 947
911 965
912 913
913 968
914 915
914 916
915 917
916 949
918 919
919 974
920 921
921 950
922 923
924 925
925 1000
926 927
926 928
927 929
928 962
930 931
930 932
931 933
934 935
936 937
937 999
937 1005
938 939
938 940
939 941
939 942
940 1003
941 943
944 945
945 986
946 947
947 988
948 949
950 951
951 955
952 953
953 994
954 955
956 957
956 958
957 959
957 960
958 967
959 961
962 963
963 964
964 965
966 967
968 969
970 971
971 976
971 978
972 973
973 1006
973 1008
974 975
976 977
978 979
980 981
980 982
981 983
983 997
984 985
984 986
985 987
988 989
990 991
992 993
993 997
994 995
996 997
998 999
1000 1001
1002 1003
1003 1004
1004 1005
1006 1007
1007 1012
1008 1009
1010 1011
1011 1012
1012 1013
